\ENCODING=ISO-8859-1
\Problem name: IloCplex

Minimize
 obj1: 999999 x_0_0_0 + 58.5234995535981 x_0_0_1 + 57.0087712549569 x_0_0_2
       + 55.7135531087365 x_0_0_3 + 52.2015325445527 x_0_0_4 + 52 x_0_0_5
       + 50.2891638427206 x_0_0_6 + 51.0783711564885 x_0_0_7
       + 51.478150704935 x_0_0_8 + 47.4341649025257 x_0_0_9
       + 58.5234995535981 x_0_1_0 + 999999 x_0_1_1 + 5 x_0_1_2 + 3 x_0_1_3
       + 7.07106781186548 x_0_1_4 + 7 x_0_1_5 + 8.60232526704263 x_0_1_6
       + 8 x_0_1_7 + 11.1803398874989 x_0_1_8 + 11.1803398874989 x_0_1_9
       + 57.0087712549569 x_0_2_0 + 5 x_0_2_1 + 999999 x_0_2_2
       + 5.8309518948453 x_0_2_3 + 5 x_0_2_4 + 8.60232526704263 x_0_2_5
       + 7 x_0_2_6 + 9.4339811320566 x_0_2_7 + 14.142135623731 x_0_2_8
       + 10 x_0_2_9 + 55.7135531087365 x_0_3_0 + 3 x_0_3_1
       + 5.8309518948453 x_0_3_2 + 999999 x_0_3_3 + 5.3851648071345 x_0_3_4
       + 4 x_0_3_5 + 6.40312423743285 x_0_3_6 + 5 x_0_3_7
       + 8.60232526704263 x_0_3_8 + 8.60232526704263 x_0_3_9
       + 52.2015325445527 x_0_4_0 + 7.07106781186548 x_0_4_1 + 5 x_0_4_2
       + 5.3851648071345 x_0_4_3 + 999999 x_0_4_4 + 5.3851648071345 x_0_4_5
       + 2 x_0_4_6 + 5.8309518948453 x_0_4_7 + 11.1803398874989 x_0_4_8
       + 5 x_0_4_9 + 52 x_0_5_0 + 7 x_0_5_1 + 8.60232526704263 x_0_5_2
       + 4 x_0_5_3 + 5.3851648071345 x_0_5_4 + 999999 x_0_5_5 + 5 x_0_5_6
       + x_0_5_7 + 5.8309518948453 x_0_5_8 + 5.8309518948453 x_0_5_9
       + 50.2891638427206 x_0_6_0 + 8.60232526704263 x_0_6_1 + 7 x_0_6_2
       + 6.40312423743285 x_0_6_3 + 2 x_0_6_4 + 5 x_0_6_5 + 999999 x_0_6_6
       + 5.09901951359278 x_0_6_7 + 10.4403065089106 x_0_6_8 + 3 x_0_6_9
       + 51.0783711564885 x_0_7_0 + 8 x_0_7_1 + 9.4339811320566 x_0_7_2
       + 5 x_0_7_3 + 5.8309518948453 x_0_7_4 + x_0_7_5
       + 5.09901951359278 x_0_7_6 + 999999 x_0_7_7 + 5.3851648071345 x_0_7_8
       + 5.3851648071345 x_0_7_9 + 51.478150704935 x_0_8_0
       + 11.1803398874989 x_0_8_1 + 14.142135623731 x_0_8_2
       + 8.60232526704263 x_0_8_3 + 11.1803398874989 x_0_8_4
       + 5.8309518948453 x_0_8_5 + 10.4403065089106 x_0_8_6
       + 5.3851648071345 x_0_8_7 + 999999 x_0_8_8 + 10 x_0_8_9
       + 47.4341649025257 x_0_9_0 + 11.1803398874989 x_0_9_1 + 10 x_0_9_2
       + 8.60232526704263 x_0_9_3 + 5 x_0_9_4 + 5.8309518948453 x_0_9_5
       + 3 x_0_9_6 + 5.3851648071345 x_0_9_7 + 10 x_0_9_8 + 999999 x_0_9_9 + 20
Subject To
 alguemSaiDoCliente(1)#0:        z_0_1 + y_0_1  = 1
 alguemSaiDoCliente(2)#1:        z_0_2 + y_0_2  = 1
 alguemSaiDoCliente(3)#2:        z_0_3 + y_0_3  = 1
 alguemSaiDoCliente(4)#3:        z_0_4 + y_0_4  = 1
 alguemSaiDoCliente(5)#4:        z_0_5 + y_0_5  = 1
 alguemSaiDoCliente(6)#5:        z_0_6 + y_0_6  = 1
 alguemSaiDoCliente(7)#6:        z_0_7 + y_0_7  = 1
 alguemSaiDoCliente(8)#7:        z_0_8 + y_0_8  = 1
 alguemSaiDoCliente(9)#8:        z_0_9 + y_0_9  = 1
 veiculo_origin_0#9:             z_0_1 + z_0_2 + z_0_3 + z_0_4 + z_0_5 + z_0_6
                                 + z_0_7 + z_0_8 + z_0_9 + z_0_0 <= 10
 chegadaNoCliente_1_peloVehicle_0#10: x_0_0_1 + x_0_2_1 + x_0_3_1 + x_0_4_1
                                 + x_0_5_1 + x_0_6_1 + x_0_7_1 + x_0_8_1
                                 + x_0_9_1  = 1
 chegadaNoCliente_2_peloVehicle_0#11: x_0_0_2 + x_0_1_2 + x_0_3_2 + x_0_4_2
                                 + x_0_5_2 + x_0_6_2 + x_0_7_2 + x_0_8_2
                                 + x_0_9_2  = 1
 chegadaNoCliente_3_peloVehicle_0#12: x_0_0_3 + x_0_1_3 + x_0_2_3 + x_0_4_3
                                 + x_0_5_3 + x_0_6_3 + x_0_7_3 + x_0_8_3
                                 + x_0_9_3  = 1
 chegadaNoCliente_4_peloVehicle_0#13: x_0_0_4 + x_0_1_4 + x_0_2_4 + x_0_3_4
                                 + x_0_5_4 + x_0_6_4 + x_0_7_4 + x_0_8_4
                                 + x_0_9_4  = 1
 chegadaNoCliente_5_peloVehicle_0#14: x_0_0_5 + x_0_1_5 + x_0_2_5 + x_0_3_5
                                 + x_0_4_5 + x_0_6_5 + x_0_7_5 + x_0_8_5
                                 + x_0_9_5  = 1
 chegadaNoCliente_6_peloVehicle_0#15: x_0_0_6 + x_0_1_6 + x_0_2_6 + x_0_3_6
                                 + x_0_4_6 + x_0_5_6 + x_0_7_6 + x_0_8_6
                                 + x_0_9_6  = 1
 chegadaNoCliente_7_peloVehicle_0#16: x_0_0_7 + x_0_1_7 + x_0_2_7 + x_0_3_7
                                 + x_0_4_7 + x_0_5_7 + x_0_6_7 + x_0_8_7
                                 + x_0_9_7  = 1
 chegadaNoCliente_8_peloVehicle_0#17: x_0_0_8 + x_0_1_8 + x_0_2_8 + x_0_3_8
                                 + x_0_4_8 + x_0_5_8 + x_0_6_8 + x_0_7_8
                                 + x_0_9_8  = 1
 chegadaNoCliente_9_peloVehicle_0#18: x_0_0_9 + x_0_1_9 + x_0_2_9 + x_0_3_9
                                 + x_0_4_9 + x_0_5_9 + x_0_6_9 + x_0_7_9
                                 + x_0_8_9  = 1
 saidaDoCliente_0_peloVehicle_0#19: x_0_0_1 + x_0_0_2 + x_0_0_3 + x_0_0_4
                                 + x_0_0_5 + x_0_0_6 + x_0_0_7 + x_0_0_8
                                 + x_0_0_9 - z_0_0  = 0
 saidaDoCliente_1_peloVehicle_0#20: x_0_1_2 + x_0_1_3 + x_0_1_4 + x_0_1_5
                                 + x_0_1_6 + x_0_1_7 + x_0_1_8 + x_0_1_9
                                 - z_0_1  = 0
 saidaDoCliente_2_peloVehicle_0#21: x_0_2_1 + x_0_2_3 + x_0_2_4 + x_0_2_5
                                 + x_0_2_6 + x_0_2_7 + x_0_2_8 + x_0_2_9
                                 - z_0_2  = 0
 saidaDoCliente_3_peloVehicle_0#22: x_0_3_1 + x_0_3_2 + x_0_3_4 + x_0_3_5
                                 + x_0_3_6 + x_0_3_7 + x_0_3_8 + x_0_3_9
                                 - z_0_3  = 0
 saidaDoCliente_4_peloVehicle_0#23: x_0_4_1 + x_0_4_2 + x_0_4_3 + x_0_4_5
                                 + x_0_4_6 + x_0_4_7 + x_0_4_8 + x_0_4_9
                                 - z_0_4  = 0
 saidaDoCliente_5_peloVehicle_0#24: x_0_5_1 + x_0_5_2 + x_0_5_3 + x_0_5_4
                                 + x_0_5_6 + x_0_5_7 + x_0_5_8 + x_0_5_9
                                 - z_0_5  = 0
 saidaDoCliente_6_peloVehicle_0#25: x_0_6_1 + x_0_6_2 + x_0_6_3 + x_0_6_4
                                 + x_0_6_5 + x_0_6_7 + x_0_6_8 + x_0_6_9
                                 - z_0_6  = 0
 saidaDoCliente_7_peloVehicle_0#26: x_0_7_1 + x_0_7_2 + x_0_7_3 + x_0_7_4
                                 + x_0_7_5 + x_0_7_6 + x_0_7_8 + x_0_7_9
                                 - z_0_7  = 0
 saidaDoCliente_8_peloVehicle_0#27: x_0_8_1 + x_0_8_2 + x_0_8_3 + x_0_8_4
                                 + x_0_8_5 + x_0_8_6 + x_0_8_7 + x_0_8_9
                                 - z_0_8  = 0
 saidaDoCliente_9_peloVehicle_0#28: x_0_9_1 + x_0_9_2 + x_0_9_3 + x_0_9_4
                                 + x_0_9_5 + x_0_9_6 + x_0_9_7 + x_0_9_8
                                 - z_0_9  = 0
 veiculo_0_utilizado#29:         x_0_0_0 + x_0_0_1 + x_0_0_2 + x_0_0_3
                                 + x_0_0_4 + x_0_0_5 + x_0_0_6 + x_0_0_7
                                 + x_0_0_8 + x_0_0_9 + x_0_1_0 + x_0_1_1
                                 + x_0_1_2 + x_0_1_3 + x_0_1_4 + x_0_1_5
                                 + x_0_1_6 + x_0_1_7 + x_0_1_8 + x_0_1_9
                                 + x_0_2_0 + x_0_2_1 + x_0_2_2 + x_0_2_3
                                 + x_0_2_4 + x_0_2_5 + x_0_2_6 + x_0_2_7
                                 + x_0_2_8 + x_0_2_9 + x_0_3_0 + x_0_3_1
                                 + x_0_3_2 + x_0_3_3 + x_0_3_4 + x_0_3_5
                                 + x_0_3_6 + x_0_3_7 + x_0_3_8 + x_0_3_9
                                 + x_0_4_0 + x_0_4_1 + x_0_4_2 + x_0_4_3
                                 + x_0_4_4 + x_0_4_5 + x_0_4_6 + x_0_4_7
                                 + x_0_4_8 + x_0_4_9 + x_0_5_0 + x_0_5_1
                                 + x_0_5_2 + x_0_5_3 + x_0_5_4 + x_0_5_5
                                 + x_0_5_6 + x_0_5_7 + x_0_5_8 + x_0_5_9
                                 + x_0_6_0 + x_0_6_1 + x_0_6_2 + x_0_6_3
                                 + x_0_6_4 + x_0_6_5 + x_0_6_6 + x_0_6_7
                                 + x_0_6_8 + x_0_6_9 + x_0_7_0 + x_0_7_1
                                 + x_0_7_2 + x_0_7_3 + x_0_7_4 + x_0_7_5
                                 + x_0_7_6 + x_0_7_7 + x_0_7_8 + x_0_7_9
                                 + x_0_8_0 + x_0_8_1 + x_0_8_2 + x_0_8_3
                                 + x_0_8_4 + x_0_8_5 + x_0_8_6 + x_0_8_7
                                 + x_0_8_8 + x_0_8_9 + x_0_9_0 + x_0_9_1
                                 + x_0_9_2 + x_0_9_3 + x_0_9_4 + x_0_9_5
                                 + x_0_9_6 + x_0_9_7 + x_0_9_8 + x_0_9_9 <= 10
 saida_Deposito#30:              x_0_0_1 + x_0_0_2 + x_0_0_3 + x_0_0_4
                                 + x_0_0_5 + x_0_0_6 + x_0_0_7 + x_0_0_8
                                 + x_0_0_9  = 1
 saida_Deposito2#31:             z_0_0  = 1
 retorno_Deposito#32:            x_0_1_0 + x_0_2_0 + x_0_3_0 + x_0_4_0
                                 + x_0_5_0 + x_0_6_0 + x_0_7_0 + x_0_8_0
                                 + x_0_9_0  = 0
 retorno_Deposito2#33:            = 0
 SumDrivers#34:                  >= 0
 GETOUT_0_0_1#35:                - 200 x_0_0_1 - u_0_1 + u_0_0 >= -200
 GETOUT_0_0_2#36:                - 200 x_0_0_2 + u_0_0 - u_0_2 >= -200
 GETOUT_0_0_3#37:                - 200 x_0_0_3 + u_0_0 - u_0_3 >= -200
 GETOUT_0_0_4#38:                - 200 x_0_0_4 + u_0_0 - u_0_4 >= -200
 GETOUT_0_0_5#39:                - 200 x_0_0_5 + u_0_0 - u_0_5 >= -200
 GETOUT_0_0_6#40:                - 200 x_0_0_6 + u_0_0 - u_0_6 >= -200
 GETOUT_0_0_7#41:                - 200 x_0_0_7 + u_0_0 - u_0_7 >= -200
 GETOUT_0_0_8#42:                - 200 x_0_0_8 + u_0_0 - u_0_8 >= -200
 GETOUT_0_0_9#43:                - 200 x_0_0_9 + u_0_0 - u_0_9 >= -200
 GETOUT_0_1_0#44:                - 200 x_0_1_0 + u_0_1 - u_0_0 >= -170
 GETOUT_0_1_2#45:                - 200 x_0_1_2 + u_0_1 - u_0_2 >= -170
 GETOUT_0_1_3#46:                - 200 x_0_1_3 + u_0_1 - u_0_3 >= -170
 GETOUT_0_1_4#47:                - 200 x_0_1_4 + u_0_1 - u_0_4 >= -170
 GETOUT_0_1_5#48:                - 200 x_0_1_5 + u_0_1 - u_0_5 >= -170
 GETOUT_0_1_6#49:                - 200 x_0_1_6 + u_0_1 - u_0_6 >= -170
 GETOUT_0_1_7#50:                - 200 x_0_1_7 + u_0_1 - u_0_7 >= -170
 GETOUT_0_1_8#51:                - 200 x_0_1_8 + u_0_1 - u_0_8 >= -170
 GETOUT_0_1_9#52:                - 200 x_0_1_9 + u_0_1 - u_0_9 >= -170
 GETOUT_0_2_0#53:                - 200 x_0_2_0 - u_0_0 + u_0_2 >= -180
 GETOUT_0_2_1#54:                - 200 x_0_2_1 - u_0_1 + u_0_2 >= -180
 GETOUT_0_2_3#55:                - 200 x_0_2_3 + u_0_2 - u_0_3 >= -180
 GETOUT_0_2_4#56:                - 200 x_0_2_4 + u_0_2 - u_0_4 >= -180
 GETOUT_0_2_5#57:                - 200 x_0_2_5 + u_0_2 - u_0_5 >= -180
 GETOUT_0_2_6#58:                - 200 x_0_2_6 + u_0_2 - u_0_6 >= -180
 GETOUT_0_2_7#59:                - 200 x_0_2_7 + u_0_2 - u_0_7 >= -180
 GETOUT_0_2_8#60:                - 200 x_0_2_8 + u_0_2 - u_0_8 >= -180
 GETOUT_0_2_9#61:                - 200 x_0_2_9 + u_0_2 - u_0_9 >= -180
 GETOUT_0_3_0#62:                - 200 x_0_3_0 - u_0_0 + u_0_3 >= -190
 GETOUT_0_3_1#63:                - 200 x_0_3_1 - u_0_1 + u_0_3 >= -190
 GETOUT_0_3_2#64:                - 200 x_0_3_2 - u_0_2 + u_0_3 >= -190
 GETOUT_0_3_4#65:                - 200 x_0_3_4 + u_0_3 - u_0_4 >= -190
 GETOUT_0_3_5#66:                - 200 x_0_3_5 + u_0_3 - u_0_5 >= -190
 GETOUT_0_3_6#67:                - 200 x_0_3_6 + u_0_3 - u_0_6 >= -190
 GETOUT_0_3_7#68:                - 200 x_0_3_7 + u_0_3 - u_0_7 >= -190
 GETOUT_0_3_8#69:                - 200 x_0_3_8 + u_0_3 - u_0_8 >= -190
 GETOUT_0_3_9#70:                - 200 x_0_3_9 + u_0_3 - u_0_9 >= -190
 GETOUT_0_4_0#71:                - 200 x_0_4_0 - u_0_0 + u_0_4 >= -190
 GETOUT_0_4_1#72:                - 200 x_0_4_1 - u_0_1 + u_0_4 >= -190
 GETOUT_0_4_2#73:                - 200 x_0_4_2 - u_0_2 + u_0_4 >= -190
 GETOUT_0_4_3#74:                - 200 x_0_4_3 - u_0_3 + u_0_4 >= -190
 GETOUT_0_4_5#75:                - 200 x_0_4_5 + u_0_4 - u_0_5 >= -190
 GETOUT_0_4_6#76:                - 200 x_0_4_6 + u_0_4 - u_0_6 >= -190
 GETOUT_0_4_7#77:                - 200 x_0_4_7 + u_0_4 - u_0_7 >= -190
 GETOUT_0_4_8#78:                - 200 x_0_4_8 + u_0_4 - u_0_8 >= -190
 GETOUT_0_4_9#79:                - 200 x_0_4_9 + u_0_4 - u_0_9 >= -190
 GETOUT_0_5_0#80:                - 200 x_0_5_0 - u_0_0 + u_0_5 >= -190
 GETOUT_0_5_1#81:                - 200 x_0_5_1 - u_0_1 + u_0_5 >= -190
 GETOUT_0_5_2#82:                - 200 x_0_5_2 - u_0_2 + u_0_5 >= -190
 GETOUT_0_5_3#83:                - 200 x_0_5_3 - u_0_3 + u_0_5 >= -190
 GETOUT_0_5_4#84:                - 200 x_0_5_4 - u_0_4 + u_0_5 >= -190
 GETOUT_0_5_6#85:                - 200 x_0_5_6 + u_0_5 - u_0_6 >= -190
 GETOUT_0_5_7#86:                - 200 x_0_5_7 + u_0_5 - u_0_7 >= -190
 GETOUT_0_5_8#87:                - 200 x_0_5_8 + u_0_5 - u_0_8 >= -190
 GETOUT_0_5_9#88:                - 200 x_0_5_9 + u_0_5 - u_0_9 >= -190
 GETOUT_0_6_0#89:                - 200 x_0_6_0 - u_0_0 + u_0_6 >= -180
 GETOUT_0_6_1#90:                - 200 x_0_6_1 - u_0_1 + u_0_6 >= -180
 GETOUT_0_6_2#91:                - 200 x_0_6_2 - u_0_2 + u_0_6 >= -180
 GETOUT_0_6_3#92:                - 200 x_0_6_3 - u_0_3 + u_0_6 >= -180
 GETOUT_0_6_4#93:                - 200 x_0_6_4 - u_0_4 + u_0_6 >= -180
 GETOUT_0_6_5#94:                - 200 x_0_6_5 - u_0_5 + u_0_6 >= -180
 GETOUT_0_6_7#95:                - 200 x_0_6_7 + u_0_6 - u_0_7 >= -180
 GETOUT_0_6_8#96:                - 200 x_0_6_8 + u_0_6 - u_0_8 >= -180
 GETOUT_0_6_9#97:                - 200 x_0_6_9 + u_0_6 - u_0_9 >= -180
 GETOUT_0_7_0#98:                - 200 x_0_7_0 - u_0_0 + u_0_7 >= -190
 GETOUT_0_7_1#99:                - 200 x_0_7_1 - u_0_1 + u_0_7 >= -190
 GETOUT_0_7_2#100:               - 200 x_0_7_2 - u_0_2 + u_0_7 >= -190
 GETOUT_0_7_3#101:               - 200 x_0_7_3 - u_0_3 + u_0_7 >= -190
 GETOUT_0_7_4#102:               - 200 x_0_7_4 - u_0_4 + u_0_7 >= -190
 GETOUT_0_7_5#103:               - 200 x_0_7_5 - u_0_5 + u_0_7 >= -190
 GETOUT_0_7_6#104:               - 200 x_0_7_6 - u_0_6 + u_0_7 >= -190
 GETOUT_0_7_8#105:               - 200 x_0_7_8 + u_0_7 - u_0_8 >= -190
 GETOUT_0_7_9#106:               - 200 x_0_7_9 + u_0_7 - u_0_9 >= -190
 GETOUT_0_8_0#107:               - 200 x_0_8_0 - u_0_0 + u_0_8 >= -190
 GETOUT_0_8_1#108:               - 200 x_0_8_1 - u_0_1 + u_0_8 >= -190
 GETOUT_0_8_2#109:               - 200 x_0_8_2 - u_0_2 + u_0_8 >= -190
 GETOUT_0_8_3#110:               - 200 x_0_8_3 - u_0_3 + u_0_8 >= -190
 GETOUT_0_8_4#111:               - 200 x_0_8_4 - u_0_4 + u_0_8 >= -190
 GETOUT_0_8_5#112:               - 200 x_0_8_5 - u_0_5 + u_0_8 >= -190
 GETOUT_0_8_6#113:               - 200 x_0_8_6 - u_0_6 + u_0_8 >= -190
 GETOUT_0_8_7#114:               - 200 x_0_8_7 - u_0_7 + u_0_8 >= -190
 GETOUT_0_8_9#115:               - 200 x_0_8_9 + u_0_8 - u_0_9 >= -190
 GETOUT_0_9_0#116:               - 200 x_0_9_0 - u_0_0 + u_0_9 >= -170
 GETOUT_0_9_1#117:               - 200 x_0_9_1 - u_0_1 + u_0_9 >= -170
 GETOUT_0_9_2#118:               - 200 x_0_9_2 - u_0_2 + u_0_9 >= -170
 GETOUT_0_9_3#119:               - 200 x_0_9_3 - u_0_3 + u_0_9 >= -170
 GETOUT_0_9_4#120:               - 200 x_0_9_4 - u_0_4 + u_0_9 >= -170
 GETOUT_0_9_5#121:               - 200 x_0_9_5 - u_0_5 + u_0_9 >= -170
 GETOUT_0_9_6#122:               - 200 x_0_9_6 - u_0_6 + u_0_9 >= -170
 GETOUT_0_9_7#123:               - 200 x_0_9_7 - u_0_7 + u_0_9 >= -170
 GETOUT_0_9_8#124:               - 200 x_0_9_8 - u_0_8 + u_0_9 >= -170
 fluxo_veiculo_0_da_entrega_9#125: z_0_9 + y_0_9  = 1
 fluxo_veiculo_0_da_entrega_6#126: z_0_6 + y_0_6  = 1
 fluxo_veiculo_0_da_entrega_4#127: z_0_4 + y_0_4  = 1
 fluxo_veiculo_0_da_entrega_2#128: z_0_2 + y_0_2  = 1
Bounds
      x_0_0_0 = 0
      x_0_0_1 = 0
      x_0_0_2 = 0
      x_0_0_3 = 0
      x_0_0_4 = 0
      x_0_0_5 = 0
      x_0_0_6 = 0
      x_0_0_7 = 0
      x_0_0_8 = 0
      x_0_0_9 = 1
 0 <= x_0_1_0 <= 1
      x_0_1_1 = 0
      x_0_1_2 = 0
 0 <= x_0_1_3 <= 1
      x_0_1_4 = 0
 0 <= x_0_1_5 <= 1
      x_0_1_6 = 0
 0 <= x_0_1_7 <= 1
 0 <= x_0_1_8 <= 1
      x_0_1_9 = 0
 0 <= x_0_2_0 <= 1
 0 <= x_0_2_1 <= 1
      x_0_2_2 = 0
 0 <= x_0_2_3 <= 1
      x_0_2_4 = 0
 0 <= x_0_2_5 <= 1
      x_0_2_6 = 0
 0 <= x_0_2_7 <= 1
 0 <= x_0_2_8 <= 1
      x_0_2_9 = 0
 0 <= x_0_3_0 <= 1
 0 <= x_0_3_1 <= 1
      x_0_3_2 = 0
      x_0_3_3 = 0
      x_0_3_4 = 0
 0 <= x_0_3_5 <= 1
      x_0_3_6 = 0
 0 <= x_0_3_7 <= 1
 0 <= x_0_3_8 <= 1
      x_0_3_9 = 0
      x_0_4_0 = 0
      x_0_4_1 = 0
      x_0_4_2 = 1
      x_0_4_3 = 0
      x_0_4_4 = 0
      x_0_4_5 = 0
      x_0_4_6 = 0
      x_0_4_7 = 0
      x_0_4_8 = 0
      x_0_4_9 = 0
 0 <= x_0_5_0 <= 1
 0 <= x_0_5_1 <= 1
      x_0_5_2 = 0
 0 <= x_0_5_3 <= 1
      x_0_5_4 = 0
      x_0_5_5 = 0
      x_0_5_6 = 0
 0 <= x_0_5_7 <= 1
 0 <= x_0_5_8 <= 1
      x_0_5_9 = 0
      x_0_6_0 = 0
      x_0_6_1 = 0
      x_0_6_2 = 0
      x_0_6_3 = 0
      x_0_6_4 = 1
      x_0_6_5 = 0
      x_0_6_6 = 0
      x_0_6_7 = 0
      x_0_6_8 = 0
      x_0_6_9 = 0
 0 <= x_0_7_0 <= 1
 0 <= x_0_7_1 <= 1
      x_0_7_2 = 0
 0 <= x_0_7_3 <= 1
      x_0_7_4 = 0
 0 <= x_0_7_5 <= 1
      x_0_7_6 = 0
      x_0_7_7 = 0
 0 <= x_0_7_8 <= 1
      x_0_7_9 = 0
 0 <= x_0_8_0 <= 1
 0 <= x_0_8_1 <= 1
      x_0_8_2 = 0
 0 <= x_0_8_3 <= 1
      x_0_8_4 = 0
 0 <= x_0_8_5 <= 1
      x_0_8_6 = 0
 0 <= x_0_8_7 <= 1
      x_0_8_8 = 0
      x_0_8_9 = 0
      x_0_9_0 = 0
      x_0_9_1 = 0
      x_0_9_2 = 0
      x_0_9_3 = 0
      x_0_9_4 = 0
      x_0_9_5 = 0
      x_0_9_6 = 1
      x_0_9_7 = 0
      x_0_9_8 = 0
      x_0_9_9 = 0
 0 <= z_0_1 <= 1
 0 <= y_0_1 <= 1
 0 <= z_0_2 <= 1
      y_0_2 = 0
 0 <= z_0_3 <= 1
 0 <= y_0_3 <= 1
      z_0_4 = 1
      y_0_4 = 0
 0 <= z_0_5 <= 1
 0 <= y_0_5 <= 1
      z_0_6 = 1
      y_0_6 = 0
 0 <= z_0_7 <= 1
 0 <= y_0_7 <= 1
 0 <= z_0_8 <= 1
 0 <= y_0_8 <= 1
      z_0_9 = 1
      y_0_9 = 0
      z_0_0 = 1
 0 <= u_0_1 <= 200
 0 <= u_0_0 <= 200
 0 <= u_0_2 <= 200
 0 <= u_0_3 <= 200
 0 <= u_0_4 <= 200
 0 <= u_0_5 <= 200
 0 <= u_0_6 <= 200
 0 <= u_0_7 <= 200
 0 <= u_0_8 <= 200
 0 <= u_0_9 <= 200
Binaries
 x_0_0_0  x_0_0_1  x_0_0_2  x_0_0_3  x_0_0_4  x_0_0_5  x_0_0_6  x_0_0_7 
 x_0_0_8  x_0_0_9  x_0_2_0  x_0_2_1  x_0_2_2  x_0_2_3  x_0_2_4  x_0_2_5 
 x_0_2_6  x_0_2_7  x_0_2_8  x_0_2_9  x_0_4_0  x_0_4_1  x_0_4_2  x_0_4_3 
 x_0_4_4  x_0_4_5  x_0_4_6  x_0_4_7  x_0_4_8  x_0_4_9  x_0_6_0  x_0_6_1 
 x_0_6_2  x_0_6_3  x_0_6_4  x_0_6_5  x_0_6_6  x_0_6_7  x_0_6_8  x_0_6_9 
 x_0_9_0  x_0_9_1  x_0_9_2  x_0_9_3  x_0_9_4  x_0_9_5  x_0_9_6  x_0_9_7 
 x_0_9_8  x_0_9_9  z_0_1  y_0_1  z_0_2  y_0_2  z_0_3  y_0_3  z_0_4  y_0_4 
 z_0_5  y_0_5  z_0_6  y_0_6  z_0_7  y_0_7  z_0_8  y_0_8  z_0_9  y_0_9  z_0_0 
End
